2
1000 8
108
57 1 6
58 1 6
59 1 4
61 1 4
62 1 4
63 1 4
64 1 7
65 1 7
66 1 3
67 1 4
68 1 3
69 1 4
70 1 2
71 1 4
72 1 3
73 1 3
74 1 6
75 1 8
76 1 4
77 1 4
78 1 4
79 1 3
80 1 8
81 1 7
82 1 5
83 1 6
84 1 10
85 1 3
86 1 1
87 1 4
88 1 5
89 1 5
90 1 4
91 1 7
92 1 2
93 1 3
94 1 2
95 1 7
96 1 3
97 1 5
98 1 2
99 1 5
100 1 9
101 1 1
102 1 7
103 1 5
104 1 4
105 1 6
106 1 3
107 1 4
108 1 3
109 1 2
110 1 5
111 1 7
112 1 3
113 1 5
114 1 4
115 1 8
116 1 3
117 1 4
118 1 3
119 1 6
120 1 4
121 1 6
122 1 1
123 1 3
124 1 3
125 1 7
126 1 1
127 1 1
128 1 2
129 1 6
130 1 6
131 1 3
132 1 3
133 1 3
134 1 2
135 1 3
136 1 7
137 1 6
138 1 4
139 1 7
140 1 7
141 1 4
142 1 4
143 1 6
144 1 8
145 1 8
146 1 7
147 1 3
148 1 8
149 1 6
150 1 5
151 1 4
152 1 5
153 1 7
154 1 7
155 1 6
156 1 5
157 1 3
158 1 2
159 1 4
160 1 3
161 1 3
162 1 5
163 1 5
164 1 8
165 1 6
